************************************************************************
file with basedata            : mb3_.bas
initial value random generator: 1839992928
************************************************************************
projects                      :  1
jobs (incl. supersource/sink ):  12
horizon                       :  77
RESOURCES
  - renewable                 :  2   R
  - nonrenewable              :  2   N
  - doubly constrained        :  0   D
************************************************************************
PROJECT INFORMATION:
pronr.  #jobs rel.date duedate tardcost  MPM-Time
    1     10      0       15        1       15
************************************************************************
PRECEDENCE RELATIONS:
jobnr.    #modes  #successors   successors
   1        1          3           2   3   4
   2        3          3           5   6   8
   3        3          1          10
   4        3          3           6   9  11
   5        3          2           7   9
   6        3          1           7
   7        3          1          10
   8        3          1           9
   9        3          1          12
  10        3          1          12
  11        3          1          12
  12        1          0        
************************************************************************
REQUESTS/DURATIONS:
jobnr. mode duration  R 1  R 2  N 1  N 2
------------------------------------------------------------------------
  1      1     0       0    0    0    0
  2      1     2       0    7    9    5
         2     4       7    0    7    2
         3     8       0    7    4    1
  3      1     3       4    0    2    7
         2     3       0    1    2    7
         3     9       3    0    2    7
  4      1     2       0    7   10    4
         2     4       6    0    8    3
         3     7       0    5    3    3
  5      1     4       8    0   10    3
         2     6       7    0    6    3
         3     9       7    0    4    3
  6      1     3       0    2    8    5
         2     4       0    2    7    2
         3     5       1    0    2    1
  7      1     2       8    0    5    3
         2     7       0    4    4    2
         3    10       8    0    4    1
  8      1     3       7    0    2    8
         2     6       2    0    2    7
         3     8       0    7    2    4
  9      1     9       0   10    5    3
         2     9       7    0    7    3
         3     9       7    0    5    5
 10      1     1       6    0    9    8
         2     5       3    0    8    7
         3     5       0    6    8    4
 11      1     1       5    0    3    6
         2     6       2    0    3    5
         3     7       1    0    3    4
 12      1     0       0    0    0    0
************************************************************************
RESOURCEAVAILABILITIES:
  R 1  R 2  N 1  N 2
   10    3   65   54
************************************************************************
MAXIMAL LAGS:
from  to  type  delay
    1   12   ES      0
    1    2   ES      0
    2   12   ES      0
    1    3   ES      0
    3   12   ES      0
    1    4   ES      0
    4   12   ES      0
    1    5   ES      0
    5   12   ES      0
    1    6   ES      0
    6   12   ES      0
    1    7   ES      0
    7   12   ES      0
    1    8   ES      0
    8   12   ES      0
    1    9   ES      0
    9   12   ES      0
    1   10   ES      0
   10   12   ES      0
    1   11   ES      0
   11   12   ES      0
    1   12   ES      0
    2    5   SS     -5
    2    5   SE     -1
    2    5   ES      9
    2    5   EE     12
    2    6   SS      7
    2    6   SE      8
    2    6   ES     -7
    2    6   EE     -6
    2    8   SS     10
    2    8   SE      1
    2    8   ES     -9
    2    8   EE     -5
    3   10   SS     -6
    3   10   SE      3
    3   10   ES     11
    3   10   EE      1
    4    6   SS    -12
    4    6   SE     -2
    4    6   ES     -7
    4    6   EE     -5
    4    9   SS    -11
    4    9   SE     -4
    4    9   ES     -2
    4    9   EE      5
    4   11   SS      4
    4   11   SE     -9
   11    4   SE      0
    4   11   ES      0
    4   11   EE     -2
    5    7   SS     12
    5    7   SE     10
    5    7   ES    -12
    5    7   EE     -7
    5    9   SS     -1
    5    9   SE     -4
    5    9   ES     12
    5    9   EE     -3
    6    7   SS      3
    6    7   SE     -8
    6    7   ES     -4
    6    7   EE     -9
    7   10   SS      7
    7   10   SE     -9
    7   10   ES      1
    7   10   EE     -2
    8    9   SS      8
    8    9   SE    -11
    8    9   ES     -6
    8    9   EE     10
************************************************************************
